NAME           C:\Bruker\Hvattum\knapsack\Problems\class4\100-10-05.mps
ROWS
 N  OBJ
 L  CONSTR1
 L  CONSTR2
 L  CONSTR3
 L  CONSTR4
 L  CONSTR5
 L  CONSTR6
 L  CONSTR7
 L  CONSTR8
 L  CONSTR9
 L  CONSTR10
COLUMNS
    INT0001   'MARKER'  'INTORG'
    X1        OBJ       851
    X1        CONSTR1   867
    X1        CONSTR2   314
    X1        CONSTR3   98
    X1        CONSTR4   908
    X1        CONSTR5   979
    X1        CONSTR6   549
    X1        CONSTR7   467
    X1        CONSTR8   208
    X1        CONSTR9   171
    X1        CONSTR10  147
    X2        OBJ       727
    X2        CONSTR1   10
    X2        CONSTR2   862
    X2        CONSTR3   126
    X2        CONSTR4   212
    X2        CONSTR5   583
    X2        CONSTR6   638
    X2        CONSTR7   513
    X2        CONSTR8   543
    X2        CONSTR9   678
    X2        CONSTR10  206
    X3        OBJ       473
    X3        CONSTR1   395
    X3        CONSTR2   12
    X3        CONSTR3   675
    X3        CONSTR4   115
    X3        CONSTR5   10
    X3        CONSTR6   357
    X3        CONSTR7   324
    X3        CONSTR8   532
    X3        CONSTR9   207
    X3        CONSTR10  37
    X4        OBJ       964
    X4        CONSTR1   982
    X4        CONSTR2   411
    X4        CONSTR3   335
    X4        CONSTR4   907
    X4        CONSTR5   768
    X4        CONSTR6   763
    X4        CONSTR7   225
    X4        CONSTR8   568
    X4        CONSTR9   964
    X4        CONSTR10  710
    X5        OBJ       772
    X5        CONSTR1   889
    X5        CONSTR2   31
    X5        CONSTR3   543
    X5        CONSTR4   394
    X5        CONSTR5   411
    X5        CONSTR6   3
    X5        CONSTR7   105
    X5        CONSTR8   603
    X5        CONSTR9   582
    X5        CONSTR10  38
    X6        OBJ       607
    X6        CONSTR1   789
    X6        CONSTR2   797
    X6        CONSTR3   894
    X6        CONSTR4   275
    X6        CONSTR5   52
    X6        CONSTR6   492
    X6        CONSTR7   194
    X6        CONSTR8   865
    X6        CONSTR9   671
    X6        CONSTR10  456
    X7        OBJ       852
    X7        CONSTR1   495
    X7        CONSTR2   94
    X7        CONSTR3   928
    X7        CONSTR4   91
    X7        CONSTR5   184
    X7        CONSTR6   822
    X7        CONSTR7   281
    X7        CONSTR8   751
    X7        CONSTR9   879
    X7        CONSTR10  680
    X8        OBJ       850
    X8        CONSTR1   725
    X8        CONSTR2   513
    X8        CONSTR3   934
    X8        CONSTR4   780
    X8        CONSTR5   85
    X8        CONSTR6   140
    X8        CONSTR7   14
    X8        CONSTR8   20
    X8        CONSTR9   253
    X8        CONSTR10  573
    X9        OBJ       521
    X9        CONSTR1   807
    X9        CONSTR2   512
    X9        CONSTR3   26
    X9        CONSTR4   222
    X9        CONSTR5   203
    X9        CONSTR6   325
    X9        CONSTR7   673
    X9        CONSTR8   699
    X9        CONSTR9   130
    X9        CONSTR10  594
    X10       OBJ       855
    X10       CONSTR1   287
    X10       CONSTR2   544
    X10       CONSTR3   551
    X10       CONSTR4   616
    X10       CONSTR5   373
    X10       CONSTR6   978
    X10       CONSTR7   240
    X10       CONSTR8   76
    X10       CONSTR9   854
    X10       CONSTR10  850
    X11       OBJ       1121
    X11       CONSTR1   588
    X11       CONSTR2   756
    X11       CONSTR3   493
    X11       CONSTR4   728
    X11       CONSTR5   296
    X11       CONSTR6   888
    X11       CONSTR7   244
    X11       CONSTR8   1000
    X11       CONSTR9   468
    X11       CONSTR10  876
    X12       OBJ       670
    X12       CONSTR1   462
    X12       CONSTR2   36
    X12       CONSTR3   673
    X12       CONSTR4   687
    X12       CONSTR5   478
    X12       CONSTR6   971
    X12       CONSTR7   42
    X12       CONSTR8   593
    X12       CONSTR9   651
    X12       CONSTR10  816
    X13       OBJ       1114
    X13       CONSTR1   856
    X13       CONSTR2   988
    X13       CONSTR3   430
    X13       CONSTR4   954
    X13       CONSTR5   300
    X13       CONSTR6   157
    X13       CONSTR7   952
    X13       CONSTR8   899
    X13       CONSTR9   381
    X13       CONSTR10  418
    X14       OBJ       874
    X14       CONSTR1   980
    X14       CONSTR2   980
    X14       CONSTR3   715
    X14       CONSTR4   580
    X14       CONSTR5   726
    X14       CONSTR6   499
    X14       CONSTR7   739
    X14       CONSTR8   423
    X14       CONSTR9   741
    X14       CONSTR10  855
    X15       OBJ       1035
    X15       CONSTR1   678
    X15       CONSTR2   672
    X15       CONSTR3   771
    X15       CONSTR4   273
    X15       CONSTR5   880
    X15       CONSTR6   862
    X15       CONSTR7   482
    X15       CONSTR8   738
    X15       CONSTR9   754
    X15       CONSTR10  518
    X16       OBJ       919
    X16       CONSTR1   987
    X16       CONSTR2   680
    X16       CONSTR3   865
    X16       CONSTR4   49
    X16       CONSTR5   830
    X16       CONSTR6   453
    X16       CONSTR7   562
    X16       CONSTR8   420
    X16       CONSTR9   276
    X16       CONSTR10  227
    X17       OBJ       643
    X17       CONSTR1   160
    X17       CONSTR2   706
    X17       CONSTR3   520
    X17       CONSTR4   381
    X17       CONSTR5   207
    X17       CONSTR6   22
    X17       CONSTR7   654
    X17       CONSTR8   822
    X17       CONSTR9   880
    X17       CONSTR10  326
    X18       OBJ       934
    X18       CONSTR1   368
    X18       CONSTR2   822
    X18       CONSTR3   544
    X18       CONSTR4   288
    X18       CONSTR5   202
    X18       CONSTR6   694
    X18       CONSTR7   961
    X18       CONSTR8   330
    X18       CONSTR9   214
    X18       CONSTR10  732
    X19       OBJ       733
    X19       CONSTR1   197
    X19       CONSTR2   827
    X19       CONSTR3   697
    X19       CONSTR4   980
    X19       CONSTR5   893
    X19       CONSTR6   132
    X19       CONSTR7   468
    X19       CONSTR8   670
    X19       CONSTR9   46
    X19       CONSTR10  447
    X20       OBJ       919
    X20       CONSTR1   8
    X20       CONSTR2   813
    X20       CONSTR3   634
    X20       CONSTR4   879
    X20       CONSTR5   957
    X20       CONSTR6   119
    X20       CONSTR7   777
    X20       CONSTR8   266
    X20       CONSTR9   426
    X20       CONSTR10  810
    X21       OBJ       611
    X21       CONSTR1   411
    X21       CONSTR2   167
    X21       CONSTR3   681
    X21       CONSTR4   974
    X21       CONSTR5   508
    X21       CONSTR6   550
    X21       CONSTR7   887
    X21       CONSTR8   375
    X21       CONSTR9   464
    X21       CONSTR10  534
    X22       OBJ       458
    X22       CONSTR1   887
    X22       CONSTR2   331
    X22       CONSTR3   62
    X22       CONSTR4   77
    X22       CONSTR5   595
    X22       CONSTR6   509
    X22       CONSTR7   496
    X22       CONSTR8   718
    X22       CONSTR9   243
    X22       CONSTR10  459
    X23       OBJ       688
    X23       CONSTR1   671
    X23       CONSTR2   320
    X23       CONSTR3   473
    X23       CONSTR4   41
    X23       CONSTR5   790
    X23       CONSTR6   353
    X23       CONSTR7   57
    X23       CONSTR8   495
    X23       CONSTR9   981
    X23       CONSTR10  967
    X24       OBJ       880
    X24       CONSTR1   544
    X24       CONSTR2   227
    X24       CONSTR3   766
    X24       CONSTR4   931
    X24       CONSTR5   816
    X24       CONSTR6   57
    X24       CONSTR7   818
    X24       CONSTR8   330
    X24       CONSTR9   175
    X24       CONSTR10  453
    X25       OBJ       618
    X25       CONSTR1   301
    X25       CONSTR2   463
    X25       CONSTR3   987
    X25       CONSTR4   771
    X25       CONSTR5   505
    X25       CONSTR6   230
    X25       CONSTR7   864
    X25       CONSTR8   958
    X25       CONSTR9   397
    X25       CONSTR10  239
    X26       OBJ       895
    X26       CONSTR1   868
    X26       CONSTR2   466
    X26       CONSTR3   323
    X26       CONSTR4   579
    X26       CONSTR5   435
    X26       CONSTR6   206
    X26       CONSTR7   85
    X26       CONSTR8   418
    X26       CONSTR9   709
    X26       CONSTR10  792
    X27       OBJ       858
    X27       CONSTR1   846
    X27       CONSTR2   144
    X27       CONSTR3   891
    X27       CONSTR4   257
    X27       CONSTR5   897
    X27       CONSTR6   609
    X27       CONSTR7   937
    X27       CONSTR8   376
    X27       CONSTR9   511
    X27       CONSTR10  446
    X28       OBJ       653
    X28       CONSTR1   99
    X28       CONSTR2   197
    X28       CONSTR3   494
    X28       CONSTR4   334
    X28       CONSTR5   341
    X28       CONSTR6   93
    X28       CONSTR7   788
    X28       CONSTR8   893
    X28       CONSTR9   130
    X28       CONSTR10  171
    X29       OBJ       777
    X29       CONSTR1   681
    X29       CONSTR2   309
    X29       CONSTR3   787
    X29       CONSTR4   48
    X29       CONSTR5   732
    X29       CONSTR6   147
    X29       CONSTR7   330
    X29       CONSTR8   410
    X29       CONSTR9   391
    X29       CONSTR10  431
    X30       OBJ       522
    X30       CONSTR1   466
    X30       CONSTR2   238
    X30       CONSTR3   335
    X30       CONSTR4   348
    X30       CONSTR5   678
    X30       CONSTR6   204
    X30       CONSTR7   111
    X30       CONSTR8   413
    X30       CONSTR9   61
    X30       CONSTR10  622
    X31       OBJ       684
    X31       CONSTR1   506
    X31       CONSTR2   137
    X31       CONSTR3   131
    X31       CONSTR4   556
    X31       CONSTR5   288
    X31       CONSTR6   325
    X31       CONSTR7   759
    X31       CONSTR8   854
    X31       CONSTR9   856
    X31       CONSTR10  670
    X32       OBJ       412
    X32       CONSTR1   537
    X32       CONSTR2   279
    X32       CONSTR3   408
    X32       CONSTR4   220
    X32       CONSTR5   75
    X32       CONSTR6   159
    X32       CONSTR7   539
    X32       CONSTR8   550
    X32       CONSTR9   727
    X32       CONSTR10  271
    X33       OBJ       527
    X33       CONSTR1   78
    X33       CONSTR2   755
    X33       CONSTR3   546
    X33       CONSTR4   424
    X33       CONSTR5   559
    X33       CONSTR6   322
    X33       CONSTR7   224
    X33       CONSTR8   242
    X33       CONSTR9   541
    X33       CONSTR10  552
    X34       OBJ       876
    X34       CONSTR1   820
    X34       CONSTR2   333
    X34       CONSTR3   718
    X34       CONSTR4   910
    X34       CONSTR5   131
    X34       CONSTR6   427
    X34       CONSTR7   786
    X34       CONSTR8   574
    X34       CONSTR9   27
    X34       CONSTR10  719
    X35       OBJ       615
    X35       CONSTR1   125
    X35       CONSTR2   510
    X35       CONSTR3   131
    X35       CONSTR4   85
    X35       CONSTR5   721
    X35       CONSTR6   290
    X35       CONSTR7   668
    X35       CONSTR8   308
    X35       CONSTR9   714
    X35       CONSTR10  506
    X36       OBJ       879
    X36       CONSTR1   589
    X36       CONSTR2   671
    X36       CONSTR3   191
    X36       CONSTR4   874
    X36       CONSTR5   707
    X36       CONSTR6   745
    X36       CONSTR7   858
    X36       CONSTR8   802
    X36       CONSTR9   728
    X36       CONSTR10  357
    X37       OBJ       870
    X37       CONSTR1   100
    X37       CONSTR2   905
    X37       CONSTR3   99
    X37       CONSTR4   277
    X37       CONSTR5   598
    X37       CONSTR6   93
    X37       CONSTR7   904
    X37       CONSTR8   753
    X37       CONSTR9   646
    X37       CONSTR10  774
    X38       OBJ       977
    X38       CONSTR1   366
    X38       CONSTR2   954
    X38       CONSTR3   224
    X38       CONSTR4   90
    X38       CONSTR5   22
    X38       CONSTR6   910
    X38       CONSTR7   669
    X38       CONSTR8   405
    X38       CONSTR9   434
    X38       CONSTR10  733
    X39       OBJ       648
    X39       CONSTR1   521
    X39       CONSTR2   533
    X39       CONSTR3   185
    X39       CONSTR4   839
    X39       CONSTR5   857
    X39       CONSTR6   505
    X39       CONSTR7   435
    X39       CONSTR8   98
    X39       CONSTR9   196
    X39       CONSTR10  909
    X40       OBJ       742
    X40       CONSTR1   810
    X40       CONSTR2   29
    X40       CONSTR3   197
    X40       CONSTR4   745
    X40       CONSTR5   272
    X40       CONSTR6   406
    X40       CONSTR7   251
    X40       CONSTR8   942
    X40       CONSTR9   198
    X40       CONSTR10  907
    X41       OBJ       416
    X41       CONSTR1   330
    X41       CONSTR2   933
    X41       CONSTR3   549
    X41       CONSTR4   512
    X41       CONSTR5   346
    X41       CONSTR6   16
    X41       CONSTR7   283
    X41       CONSTR8   261
    X41       CONSTR9   60
    X41       CONSTR10  96
    X42       OBJ       792
    X42       CONSTR1   632
    X42       CONSTR2   186
    X42       CONSTR3   705
    X42       CONSTR4   569
    X42       CONSTR5   263
    X42       CONSTR6   160
    X42       CONSTR7   971
    X42       CONSTR8   624
    X42       CONSTR9   776
    X42       CONSTR10  995
    X43       OBJ       579
    X43       CONSTR1   857
    X43       CONSTR2   338
    X43       CONSTR3   38
    X43       CONSTR4   148
    X43       CONSTR5   798
    X43       CONSTR6   899
    X43       CONSTR7   440
    X43       CONSTR8   461
    X43       CONSTR9   768
    X43       CONSTR10  243
    X44       OBJ       943
    X44       CONSTR1   718
    X44       CONSTR2   801
    X44       CONSTR3   256
    X44       CONSTR4   936
    X44       CONSTR5   288
    X44       CONSTR6   290
    X44       CONSTR7   858
    X44       CONSTR8   179
    X44       CONSTR9   333
    X44       CONSTR10  87
    X45       OBJ       794
    X45       CONSTR1   326
    X45       CONSTR2   694
    X45       CONSTR3   870
    X45       CONSTR4   78
    X45       CONSTR5   67
    X45       CONSTR6   882
    X45       CONSTR7   980
    X45       CONSTR8   678
    X45       CONSTR9   468
    X45       CONSTR10  985
    X46       OBJ       832
    X46       CONSTR1   453
    X46       CONSTR2   768
    X46       CONSTR3   290
    X46       CONSTR4   567
    X46       CONSTR5   721
    X46       CONSTR6   572
    X46       CONSTR7   145
    X46       CONSTR8   85
    X46       CONSTR9   479
    X46       CONSTR10  219
    X47       OBJ       810
    X47       CONSTR1   26
    X47       CONSTR2   790
    X47       CONSTR3   812
    X47       CONSTR4   89
    X47       CONSTR5   630
    X47       CONSTR6   163
    X47       CONSTR7   551
    X47       CONSTR8   237
    X47       CONSTR9   535
    X47       CONSTR10  392
    X48       OBJ       651
    X48       CONSTR1   649
    X48       CONSTR2   969
    X48       CONSTR3   984
    X48       CONSTR4   43
    X48       CONSTR5   960
    X48       CONSTR6   699
    X48       CONSTR7   317
    X48       CONSTR8   154
    X48       CONSTR9   98
    X48       CONSTR10  261
    X49       OBJ       799
    X49       CONSTR1   337
    X49       CONSTR2   704
    X49       CONSTR3   299
    X49       CONSTR4   841
    X49       CONSTR5   143
    X49       CONSTR6   76
    X49       CONSTR7   683
    X49       CONSTR8   342
    X49       CONSTR9   478
    X49       CONSTR10  284
    X50       OBJ       786
    X50       CONSTR1   7
    X50       CONSTR2   962
    X50       CONSTR3   636
    X50       CONSTR4   734
    X50       CONSTR5   762
    X50       CONSTR6   406
    X50       CONSTR7   148
    X50       CONSTR8   419
    X50       CONSTR9   557
    X50       CONSTR10  638
    X51       OBJ       1015
    X51       CONSTR1   216
    X51       CONSTR2   527
    X51       CONSTR3   108
    X51       CONSTR4   283
    X51       CONSTR5   643
    X51       CONSTR6   673
    X51       CONSTR7   846
    X51       CONSTR8   585
    X51       CONSTR9   757
    X51       CONSTR10  722
    X52       OBJ       696
    X52       CONSTR1   355
    X52       CONSTR2   184
    X52       CONSTR3   716
    X52       CONSTR4   197
    X52       CONSTR5   130
    X52       CONSTR6   451
    X52       CONSTR7   763
    X52       CONSTR8   119
    X52       CONSTR9   366
    X52       CONSTR10  293
    X53       OBJ       800
    X53       CONSTR1   200
    X53       CONSTR2   479
    X53       CONSTR3   737
    X53       CONSTR4   730
    X53       CONSTR5   509
    X53       CONSTR6   436
    X53       CONSTR7   279
    X53       CONSTR8   725
    X53       CONSTR9   204
    X53       CONSTR10  41
    X54       OBJ       601
    X54       CONSTR1   376
    X54       CONSTR2   456
    X54       CONSTR3   672
    X54       CONSTR4   187
    X54       CONSTR5   829
    X54       CONSTR6   693
    X54       CONSTR7   768
    X54       CONSTR8   263
    X54       CONSTR9   987
    X54       CONSTR10  693
    X55       OBJ       744
    X55       CONSTR1   239
    X55       CONSTR2   927
    X55       CONSTR3   778
    X55       CONSTR4   368
    X55       CONSTR5   67
    X55       CONSTR6   74
    X55       CONSTR7   762
    X55       CONSTR8   419
    X55       CONSTR9   604
    X55       CONSTR10  887
    X56       OBJ       674
    X56       CONSTR1   969
    X56       CONSTR2   333
    X56       CONSTR3   528
    X56       CONSTR4   94
    X56       CONSTR5   245
    X56       CONSTR6   760
    X56       CONSTR7   63
    X56       CONSTR8   152
    X56       CONSTR9   895
    X56       CONSTR10  270
    X57       OBJ       912
    X57       CONSTR1   770
    X57       CONSTR2   380
    X57       CONSTR3   610
    X57       CONSTR4   463
    X57       CONSTR5   832
    X57       CONSTR6   830
    X57       CONSTR7   893
    X57       CONSTR8   913
    X57       CONSTR9   284
    X57       CONSTR10  361
    X58       OBJ       977
    X58       CONSTR1   481
    X58       CONSTR2   559
    X58       CONSTR3   737
    X58       CONSTR4   391
    X58       CONSTR5   312
    X58       CONSTR6   263
    X58       CONSTR7   977
    X58       CONSTR8   791
    X58       CONSTR9   271
    X58       CONSTR10  354
    X59       OBJ       614
    X59       CONSTR1   264
    X59       CONSTR2   836
    X59       CONSTR3   938
    X59       CONSTR4   469
    X59       CONSTR5   977
    X59       CONSTR6   928
    X59       CONSTR7   234
    X59       CONSTR8   371
    X59       CONSTR9   218
    X59       CONSTR10  398
    X60       OBJ       762
    X60       CONSTR1   894
    X60       CONSTR2   537
    X60       CONSTR3   439
    X60       CONSTR4   492
    X60       CONSTR5   256
    X60       CONSTR6   737
    X60       CONSTR7   964
    X60       CONSTR8   274
    X60       CONSTR9   67
    X60       CONSTR10  437
    X61       OBJ       470
    X61       CONSTR1   618
    X61       CONSTR2   128
    X61       CONSTR3   273
    X61       CONSTR4   913
    X61       CONSTR5   933
    X61       CONSTR6   223
    X61       CONSTR7   523
    X61       CONSTR8   200
    X61       CONSTR9   22
    X61       CONSTR10  795
    X62       OBJ       745
    X62       CONSTR1   667
    X62       CONSTR2   930
    X62       CONSTR3   83
    X62       CONSTR4   533
    X62       CONSTR5   958
    X62       CONSTR6   43
    X62       CONSTR7   674
    X62       CONSTR8   464
    X62       CONSTR9   986
    X62       CONSTR10  69
    X63       OBJ       574
    X63       CONSTR1   136
    X63       CONSTR2   602
    X63       CONSTR3   648
    X63       CONSTR4   259
    X63       CONSTR5   981
    X63       CONSTR6   939
    X63       CONSTR7   318
    X63       CONSTR8   244
    X63       CONSTR9   402
    X63       CONSTR10  127
    X64       OBJ       648
    X64       CONSTR1   473
    X64       CONSTR2   294
    X64       CONSTR3   112
    X64       CONSTR4   803
    X64       CONSTR5   238
    X64       CONSTR6   657
    X64       CONSTR7   581
    X64       CONSTR8   128
    X64       CONSTR9   876
    X64       CONSTR10  491
    X65       OBJ       807
    X65       CONSTR1   860
    X65       CONSTR2   36
    X65       CONSTR3   717
    X65       CONSTR4   513
    X65       CONSTR5   331
    X65       CONSTR6   369
    X65       CONSTR7   946
    X65       CONSTR8   437
    X65       CONSTR9   29
    X65       CONSTR10  28
    X66       OBJ       903
    X66       CONSTR1   919
    X66       CONSTR2   755
    X66       CONSTR3   516
    X66       CONSTR4   462
    X66       CONSTR5   972
    X66       CONSTR6   348
    X66       CONSTR7   638
    X66       CONSTR8   959
    X66       CONSTR9   313
    X66       CONSTR10  87
    X67       OBJ       678
    X67       CONSTR1   487
    X67       CONSTR2   866
    X67       CONSTR3   40
    X67       CONSTR4   8
    X67       CONSTR5   148
    X67       CONSTR6   469
    X67       CONSTR7   957
    X67       CONSTR8   513
    X67       CONSTR9   355
    X67       CONSTR10  2
    X68       OBJ       1092
    X68       CONSTR1   994
    X68       CONSTR2   79
    X68       CONSTR3   698
    X68       CONSTR4   557
    X68       CONSTR5   528
    X68       CONSTR6   865
    X68       CONSTR7   628
    X68       CONSTR8   938
    X68       CONSTR9   394
    X68       CONSTR10  433
    X69       OBJ       651
    X69       CONSTR1   232
    X69       CONSTR2   892
    X69       CONSTR3   189
    X69       CONSTR4   832
    X69       CONSTR5   244
    X69       CONSTR6   989
    X69       CONSTR7   311
    X69       CONSTR8   796
    X69       CONSTR9   69
    X69       CONSTR10  817
    X70       OBJ       700
    X70       CONSTR1   198
    X70       CONSTR2   893
    X70       CONSTR3   863
    X70       CONSTR4   678
    X70       CONSTR5   5
    X70       CONSTR6   866
    X70       CONSTR7   913
    X70       CONSTR8   665
    X70       CONSTR9   812
    X70       CONSTR10  593
    X71       OBJ       471
    X71       CONSTR1   117
    X71       CONSTR2   17
    X71       CONSTR3   433
    X71       CONSTR4   359
    X71       CONSTR5   184
    X71       CONSTR6   926
    X71       CONSTR7   65
    X71       CONSTR8   453
    X71       CONSTR9   571
    X71       CONSTR10  480
    X72       OBJ       826
    X72       CONSTR1   500
    X72       CONSTR2   212
    X72       CONSTR3   46
    X72       CONSTR4   616
    X72       CONSTR5   997
    X72       CONSTR6   647
    X72       CONSTR7   894
    X72       CONSTR8   694
    X72       CONSTR9   987
    X72       CONSTR10  733
    X73       OBJ       535
    X73       CONSTR1   160
    X73       CONSTR2   727
    X73       CONSTR3   487
    X73       CONSTR4   324
    X73       CONSTR5   631
    X73       CONSTR6   644
    X73       CONSTR7   57
    X73       CONSTR8   350
    X73       CONSTR9   312
    X73       CONSTR10  500
    X74       OBJ       586
    X74       CONSTR1   159
    X74       CONSTR2   337
    X74       CONSTR3   472
    X74       CONSTR4   924
    X74       CONSTR5   317
    X74       CONSTR6   40
    X74       CONSTR7   30
    X74       CONSTR8   756
    X74       CONSTR9   521
    X74       CONSTR10  378
    X75       OBJ       675
    X75       CONSTR1   69
    X75       CONSTR2   873
    X75       CONSTR3   947
    X75       CONSTR4   15
    X75       CONSTR5   901
    X75       CONSTR6   124
    X75       CONSTR7   820
    X75       CONSTR8   469
    X75       CONSTR9   241
    X75       CONSTR10  283
    X76       OBJ       853
    X76       CONSTR1   594
    X76       CONSTR2   114
    X76       CONSTR3   169
    X76       CONSTR4   978
    X76       CONSTR5   314
    X76       CONSTR6   73
    X76       CONSTR7   136
    X76       CONSTR8   114
    X76       CONSTR9   571
    X76       CONSTR10  922
    X77       OBJ       599
    X77       CONSTR1   656
    X77       CONSTR2   288
    X77       CONSTR3   544
    X77       CONSTR4   713
    X77       CONSTR5   515
    X77       CONSTR6   772
    X77       CONSTR7   352
    X77       CONSTR8   827
    X77       CONSTR9   384
    X77       CONSTR10  680
    X78       OBJ       930
    X78       CONSTR1   76
    X78       CONSTR2   602
    X78       CONSTR3   867
    X78       CONSTR4   861
    X78       CONSTR5   12
    X78       CONSTR6   478
    X78       CONSTR7   615
    X78       CONSTR8   634
    X78       CONSTR9   86
    X78       CONSTR10  691
    X79       OBJ       589
    X79       CONSTR1   511
    X79       CONSTR2   704
    X79       CONSTR3   314
    X79       CONSTR4   444
    X79       CONSTR5   785
    X79       CONSTR6   431
    X79       CONSTR7   574
    X79       CONSTR8   814
    X79       CONSTR9   421
    X79       CONSTR10  358
    X80       OBJ       620
    X80       CONSTR1   65
    X80       CONSTR2   948
    X80       CONSTR3   631
    X80       CONSTR4   429
    X80       CONSTR5   930
    X80       CONSTR6   207
    X80       CONSTR7   940
    X80       CONSTR8   677
    X80       CONSTR9   956
    X80       CONSTR10  216
    X81       OBJ       832
    X81       CONSTR1   138
    X81       CONSTR2   761
    X81       CONSTR3   683
    X81       CONSTR4   70
    X81       CONSTR5   44
    X81       CONSTR6   403
    X81       CONSTR7   858
    X81       CONSTR8   35
    X81       CONSTR9   68
    X81       CONSTR10  629
    X82       OBJ       825
    X82       CONSTR1   715
    X82       CONSTR2   217
    X82       CONSTR3   539
    X82       CONSTR4   821
    X82       CONSTR5   714
    X82       CONSTR6   101
    X82       CONSTR7   414
    X82       CONSTR8   450
    X82       CONSTR9   872
    X82       CONSTR10  627
    X83       OBJ       498
    X83       CONSTR1   766
    X83       CONSTR2   162
    X83       CONSTR3   834
    X83       CONSTR4   104
    X83       CONSTR5   448
    X83       CONSTR6   264
    X83       CONSTR7   277
    X83       CONSTR8   261
    X83       CONSTR9   1000
    X83       CONSTR10  404
    X84       OBJ       720
    X84       CONSTR1   921
    X84       CONSTR2   908
    X84       CONSTR3   534
    X84       CONSTR4   746
    X84       CONSTR5   300
    X84       CONSTR6   420
    X84       CONSTR7   938
    X84       CONSTR8   32
    X84       CONSTR9   635
    X84       CONSTR10  457
    X85       OBJ       936
    X85       CONSTR1   519
    X85       CONSTR2   292
    X85       CONSTR3   298
    X85       CONSTR4   514
    X85       CONSTR5   590
    X85       CONSTR6   508
    X85       CONSTR7   836
    X85       CONSTR8   658
    X85       CONSTR9   547
    X85       CONSTR10  145
    X86       OBJ       712
    X86       CONSTR1   301
    X86       CONSTR2   559
    X86       CONSTR3   779
    X86       CONSTR4   378
    X86       CONSTR5   709
    X86       CONSTR6   508
    X86       CONSTR7   263
    X86       CONSTR8   236
    X86       CONSTR9   822
    X86       CONSTR10  41
    X87       OBJ       762
    X87       CONSTR1   902
    X87       CONSTR2   927
    X87       CONSTR3   705
    X87       CONSTR4   143
    X87       CONSTR5   714
    X87       CONSTR6   128
    X87       CONSTR7   572
    X87       CONSTR8   851
    X87       CONSTR9   114
    X87       CONSTR10  610
    X88       OBJ       858
    X88       CONSTR1   818
    X88       CONSTR2   920
    X88       CONSTR3   928
    X88       CONSTR4   622
    X88       CONSTR5   399
    X88       CONSTR6   986
    X88       CONSTR7   943
    X88       CONSTR8   112
    X88       CONSTR9   400
    X88       CONSTR10  14
    X89       OBJ       773
    X89       CONSTR1   366
    X89       CONSTR2   186
    X89       CONSTR3   358
    X89       CONSTR4   690
    X89       CONSTR5   418
    X89       CONSTR6   700
    X89       CONSTR7   594
    X89       CONSTR8   31
    X89       CONSTR9   754
    X89       CONSTR10  613
    X90       OBJ       689
    X90       CONSTR1   529
    X90       CONSTR2   446
    X90       CONSTR3   510
    X90       CONSTR4   489
    X90       CONSTR5   195
    X90       CONSTR6   333
    X90       CONSTR7   113
    X90       CONSTR8   471
    X90       CONSTR9   12
    X90       CONSTR10  188
    X91       OBJ       901
    X91       CONSTR1   227
    X91       CONSTR2   404
    X91       CONSTR3   898
    X91       CONSTR4   60
    X91       CONSTR5   974
    X91       CONSTR6   152
    X91       CONSTR7   855
    X91       CONSTR8   885
    X91       CONSTR9   512
    X91       CONSTR10  332
    X92       OBJ       873
    X92       CONSTR1   312
    X92       CONSTR2   244
    X92       CONSTR3   286
    X92       CONSTR4   784
    X92       CONSTR5   663
    X92       CONSTR6   840
    X92       CONSTR7   22
    X92       CONSTR8   24
    X92       CONSTR9   956
    X92       CONSTR10  285
    X93       OBJ       321
    X93       CONSTR1   172
    X93       CONSTR2   127
    X93       CONSTR3   166
    X93       CONSTR4   68
    X93       CONSTR5   155
    X93       CONSTR6   627
    X93       CONSTR7   87
    X93       CONSTR8   819
    X93       CONSTR9   22
    X93       CONSTR10  403
    X94       OBJ       582
    X94       CONSTR1   934
    X94       CONSTR2   86
    X94       CONSTR3   272
    X94       CONSTR4   461
    X94       CONSTR5   787
    X94       CONSTR6   70
    X94       CONSTR7   272
    X94       CONSTR8   581
    X94       CONSTR9   144
    X94       CONSTR10  68
    X95       OBJ       529
    X95       CONSTR1   354
    X95       CONSTR2   514
    X95       CONSTR3   239
    X95       CONSTR4   71
    X95       CONSTR5   299
    X95       CONSTR6   996
    X95       CONSTR7   715
    X95       CONSTR8   381
    X95       CONSTR9   658
    X95       CONSTR10  360
    X96       OBJ       535
    X96       CONSTR1   519
    X96       CONSTR2   683
    X96       CONSTR3   604
    X96       CONSTR4   550
    X96       CONSTR5   4
    X96       CONSTR6   413
    X96       CONSTR7   433
    X96       CONSTR8   385
    X96       CONSTR9   616
    X96       CONSTR10  788
    X97       OBJ       609
    X97       CONSTR1   911
    X97       CONSTR2   172
    X97       CONSTR3   9
    X97       CONSTR4   488
    X97       CONSTR5   47
    X97       CONSTR6   644
    X97       CONSTR7   243
    X97       CONSTR8   354
    X97       CONSTR9   904
    X97       CONSTR10  88
    X98       OBJ       529
    X98       CONSTR1   250
    X98       CONSTR2   673
    X98       CONSTR3   920
    X98       CONSTR4   3
    X98       CONSTR5   770
    X98       CONSTR6   240
    X98       CONSTR7   340
    X98       CONSTR8   281
    X98       CONSTR9   687
    X98       CONSTR10  215
    X99       OBJ       744
    X99       CONSTR1   672
    X99       CONSTR2   913
    X99       CONSTR3   788
    X99       CONSTR4   268
    X99       CONSTR5   211
    X99       CONSTR6   30
    X99       CONSTR7   689
    X99       CONSTR8   146
    X99       CONSTR9   549
    X99       CONSTR10  196
    X100      OBJ       972
    X100      CONSTR1   646
    X100      CONSTR2   485
    X100      CONSTR3   673
    X100      CONSTR4   538
    X100      CONSTR5   918
    X100      CONSTR6   250
    X100      CONSTR7   437
    X100      CONSTR8   761
    X100      CONSTR9   889
    X100      CONSTR10  186
    INT0001   'MARKER'  'INTEND'
RHS
    RHS10001  CONSTR1   12580
    RHS10001  CONSTR2   12919
    RHS10001  CONSTR3   12964
    RHS10001  CONSTR4   11745
    RHS10001  CONSTR5   12501
    RHS10001  CONSTR6   11434
    RHS10001  CONSTR7   13295
    RHS10001  CONSTR8   12220
    RHS10001  CONSTR9   12257
    RHS10001  CONSTR10  11454
BOUNDS
 BV BND       X1        .00
 BV BND       X2        .00
 BV BND       X3        .00
 BV BND       X4        .00
 BV BND       X5        .00
 BV BND       X6        .00
 BV BND       X7        .00
 BV BND       X8        .00
 BV BND       X9        .00
 BV BND       X10       .00
 BV BND       X11       .00
 BV BND       X12       .00
 BV BND       X13       .00
 BV BND       X14       .00
 BV BND       X15       .00
 BV BND       X16       .00
 BV BND       X17       .00
 BV BND       X18       .00
 BV BND       X19       .00
 BV BND       X20       .00
 BV BND       X21       .00
 BV BND       X22       .00
 BV BND       X23       .00
 BV BND       X24       .00
 BV BND       X25       .00
 BV BND       X26       .00
 BV BND       X27       .00
 BV BND       X28       .00
 BV BND       X29       .00
 BV BND       X30       .00
 BV BND       X31       .00
 BV BND       X32       .00
 BV BND       X33       .00
 BV BND       X34       .00
 BV BND       X35       .00
 BV BND       X36       .00
 BV BND       X37       .00
 BV BND       X38       .00
 BV BND       X39       .00
 BV BND       X40       .00
 BV BND       X41       .00
 BV BND       X42       .00
 BV BND       X43       .00
 BV BND       X44       .00
 BV BND       X45       .00
 BV BND       X46       .00
 BV BND       X47       .00
 BV BND       X48       .00
 BV BND       X49       .00
 BV BND       X50       .00
 BV BND       X51       .00
 BV BND       X52       .00
 BV BND       X53       .00
 BV BND       X54       .00
 BV BND       X55       .00
 BV BND       X56       .00
 BV BND       X57       .00
 BV BND       X58       .00
 BV BND       X59       .00
 BV BND       X60       .00
 BV BND       X61       .00
 BV BND       X62       .00
 BV BND       X63       .00
 BV BND       X64       .00
 BV BND       X65       .00
 BV BND       X66       .00
 BV BND       X67       .00
 BV BND       X68       .00
 BV BND       X69       .00
 BV BND       X70       .00
 BV BND       X71       .00
 BV BND       X72       .00
 BV BND       X73       .00
 BV BND       X74       .00
 BV BND       X75       .00
 BV BND       X76       .00
 BV BND       X77       .00
 BV BND       X78       .00
 BV BND       X79       .00
 BV BND       X80       .00
 BV BND       X81       .00
 BV BND       X82       .00
 BV BND       X83       .00
 BV BND       X84       .00
 BV BND       X85       .00
 BV BND       X86       .00
 BV BND       X87       .00
 BV BND       X88       .00
 BV BND       X89       .00
 BV BND       X90       .00
 BV BND       X91       .00
 BV BND       X92       .00
 BV BND       X93       .00
 BV BND       X94       .00
 BV BND       X95       .00
 BV BND       X96       .00
 BV BND       X97       .00
 BV BND       X98       .00
 BV BND       X99       .00
 BV BND       X100      .00
ENDATA
